qe/outputs/qe/qe_queries_cbrdelay_obs_redo/T=5,eliminate=[I_0,I_1,I_2,I_3,I_4,L_2,L_3,L_4,C,B,lhs=L_1].smt2
; benchmark generated from python API
(set-info :status unknown)
(declare-fun S_1 () Real)
(declare-fun S_3 () Real)
(declare-fun S_4 () Real)
(declare-fun A_3 () Real)
(declare-fun L_1 () Real)
(declare-fun S_0 () Real)
(declare-fun L_0 () Real)
(declare-fun A_0 () Real)
(declare-fun S_2 () Real)
(declare-fun A_4 () Real)
(declare-fun A_2 () Real)
(declare-fun A_1 () Real)
(assert
 (let (($x6937 (<= (+ (* (- 1.0) A_0) (* (- 1.0) S_3) L_0 (* 2.0 S_1)) 0.0)))
 (let (($x34 (>= L_0 0.0)))
 (let ((?x1937 (* 2.0 S_4)))
 (let ((?x2425 (* 2.0 A_2)))
 (let ((?x355 (* (- 1.0) S_3)))
 (let ((?x9510 (+ ?x355 (* 2.0 L_1) (* (- 2.0) A_1) (* (- 2.0) A_4) ?x2425 ?x1937 S_0)))
 (let (($x51 (= L_1 L_0)))
 (let (($x1012 (<= (+ (* (- (/ 1.0 2.0)) S_3) L_1 (* (- 1.0) A_3) S_4 (* (/ 1.0 2.0) S_0)) 0.0)))
 (let (($x1014 (<= (+ (* (- 1.0) L_1) A_3 (* (- 1.0) S_4)) 0.0)))
 (let (($x455 (<= (+ (* (- (/ 1.0 3.0)) S_4) (* (/ 1.0 3.0) S_0)) (- 5.0))))
 (let (($x10599 (<= (+ ?x355 L_1 (* (- 1.0) A_1) (* (- 1.0) A_4) A_2 S_4 S_1) 0.0)))
 (let (($x14092 (not (<= (+ A_1 (* (- 1.0) A_2)) (- 5.0)))))
 (let (($x524 (<= (+ (* (- (/ 1.0 2.0)) S_4) (* (/ 1.0 2.0) S_1)) (- 5.0))))
 (let (($x19704 (or $x1014 (<= (+ (* (- 3.0) S_4) (* 4.0 S_2) (* (- 1.0) S_0)) 0.0))))
 (let (($x19558 (or $x1014 (<= (+ (* (- 2.0) S_4) (* 3.0 S_2) (* (- 1.0) S_1)) 0.0))))
 (let (($x19542 (or $x1014 (<= (+ (* (- 1.0) S_4) (* 2.0 S_1) (* (- 1.0) S_0)) 0.0))))
 (let (($x1772 (<= (+ (* (- 1.0) A_0) L_0 (* (- (/ 1.0 2.0)) S_4) (* (/ 3.0 2.0) S_1)) 0.0)))
 (let (($x13916 (<= (- 5.0) (+ L_1 (* (- 1.0) A_1) (* (- 2.0) A_3) ?x2425 S_4))))
 (let (($x1956 (<= (+ (* (- 1.0) A_0) L_0 (* (- 2.0) S_4) (* 3.0 S_2)) 0.0)))
 (let ((?x348 (* (- 1.0) S_2)))
 (let ((?x376 (* (- 1.0) A_4)))
 (let ((?x368 (* (- 1.0) A_1)))
 (let (($x13755 (<= 0.0 (+ A_1 (* (- 1.0) A_2) (* (/ 1.0 2.0) S_4) (* (- (/ 1.0 2.0)) S_1)))))
 (let (($x108 (>= S_1 S_0)))
 (let (($x111 (>= S_2 S_1)))
 (let (($x114 (>= S_3 S_2)))
 (let (($x117 (>= S_4 S_3)))
 (let (($x120 (>= A_2 A_1)))
 (let (($x121 (>= A_3 A_2)))
 (let (($x122 (>= A_4 A_3)))
 (and (<= (+ A_0 (* (- 1.0) L_0)) S_3) $x122 $x121 $x120 $x117 $x114 $x111 $x108 (or $x51 (not (<= 0.0 (+ L_0 (* (- 1.0) L_1))))) (<= (+ (* (/ 1.0 3.0) S_3) ?x348 (* (/ 2.0 3.0) S_0)) 0.0) (not (<= (+ A_1 (* (- 1.0) L_1)) S_3)) (or $x1772 $x13755) (or $x1014 (<= (+ (* (- 1.0) S_4) S_2) (- 5.0))) (<= (+ (* (/ 1.0 4.0) S_4) ?x348 (* (/ 3.0 4.0) S_0)) 0.0) (or $x51 (<= (+ L_1 ?x368 ?x376 A_2 S_4 ?x348 S_0) 0.0)) (or $x455 $x13916) (or $x1014 $x1956) (or $x524 $x13916) (or $x1014 $x1772) $x19542 $x19558 $x19704 (or $x524 $x14092) (or $x524 $x1014) (or $x51 $x10599) (or $x455 $x1014) $x1012 (or $x51 (<= ?x9510 0.0)) $x34 (<= (+ (* (- 1.0) A_0) L_0 S_0) 0.0) (<= (+ (* (- (/ 1.0 2.0)) S_3) (* (/ 1.0 2.0) S_0)) (- 5.0)) (<= (+ ?x348 S_0) (- 5.0)) (<= (+ L_1 ?x376 S_4) 0.0) (<= (+ L_1 (* (- 1.0) A_3) S_4 ?x348 S_0) 0.0) (<= (+ (* (- 2.0) S_3) (* 3.0 S_1) (* (- 1.0) S_0)) 0.0) $x6937 (<= (+ ?x355 (* (/ 1.0 2.0) S_4) (* (/ 1.0 2.0) S_0)) 0.0) (<= (+ ?x355 (* (/ 1.0 3.0) S_4) (* (/ 2.0 3.0) S_1)) 0.0) (<= (+ ?x355 L_1 (* (- 1.0) A_3) S_4 S_1) 0.0) (<= (+ ?x355 S_1) (- 5.0))))))))))))))))))))))))))))))))))
(check-sat)
